10
0, 264, 342, 638, 187, 660, 324, 384, 348, 645
264, 0, 321, 589, 376, 743, 193, 175, 448, 491
342, 321, 0, 897, 529, 989, 149, 494, 182, 811
638, 589, 897, 0, 521, 342, 783, 452, 973, 260
187, 376, 529, 521, 0, 480, 494, 424, 524, 601
660, 743, 989, 342, 480, 0, 917, 671, 1004, 591
324, 193, 149, 783, 494, 917, 0, 356, 318, 673
384, 175, 494, 452, 424, 671, 356, 0, 622, 318
348, 448, 182, 973, 524, 1004, 318, 622, 0, 931
645, 491, 811, 260, 601, 591, 673, 318, 931, 0
